p td 22 144
2 1
3 2
3 1
4 3
4 1
4 2
5 1
5 4
6 1
6 2
6 4
6 3
7 4
7 2
7 3
8 2
8 1
8 5
8 6
8 3
9 7
9 5
9 2
9 3
9 1
10 8
10 3
10 6
10 1
10 4
10 7
10 2
10 9
11 10
11 6
11 8
11 5
12 7
12 8
12 11
12 3
12 4
12 9
12 1
13 10
13 12
13 5
13 7
13 1
13 4
13 9
14 9
14 5
14 11
14 10
14 1
14 13
14 8
14 7
14 6
14 3
14 4
14 12
15 5
15 11
15 7
15 3
15 9
15 13
16 9
16 14
16 8
16 5
16 10
16 12
16 1
16 6
16 13
16 11
16 15
17 15
17 16
17 4
17 6
17 13
17 10
17 14
17 1
17 5
18 9
18 10
18 16
18 6
18 14
18 1
18 13
18 7
18 17
19 6
19 14
19 1
19 7
19 17
19 4
19 18
19 8
19 13
19 10
20 19
20 4
20 9
20 16
20 3
20 10
20 13
20 15
20 2
20 5
20 18
21 19
21 18
21 15
21 2
21 1
21 13
21 9
21 11
21 16
21 10
21 20
22 15
22 11
22 17
22 14
22 7
22 20
22 16
22 3
22 21
22 8
22 9
22 6
22 10
22 2
